100 155490
35 76 48 36 70 7 23 29 45 3 17 41 20 82 81 64 46 51 90 44 92 53 10 73 72 26 38 40 47 66 49 2 85 67 14 30 12 100 99 1 24 28 58 43 13 61 57 60 8 19 91 89 54 34 55 95 31 69 77 6 93 25 74 75 63 4 56 32 22 86 21 50 94 96 16 84 52 98 59 68 18 42 97 80 5 9 27 11 33 87 39 71 65 88 83 37 62 79 78 15 
